20J7M/DAT/20J7MNLL-17.dat
20 7
29.4654 29.4654
19.4353 19.4353
31.999 31.999
30.4456 30.4456
31.937 31.937
18.2853 18.2853
20.2783 20.2783
21.1626 21.1626
24.4599 24.4599
29.0763 29.0763
31.2787 31.2787
23.7022 23.7022
25.6592 25.6592
31.8174 31.8174
30.4649 30.4649
25.1057 25.1057
25.6615 25.6615
24.1485 24.1485
26.3203 26.3203
14.3804 14.3804
73.5834