20J7M/SOL/20J7MNLL-17.sol
solution status: optimal solution found
objective value:                     82.3983571428571
x#1#2                               0.695235782715365 	(obj:0)
x#1#5                               0.304764217284635 	(obj:0)
x#2#1                                               1 	(obj:0)
x#3#3                                               1 	(obj:0)
x#4#6                               0.521544010635231 	(obj:0)
x#4#7                               0.478455989364769 	(obj:0)
x#5#4                                               1 	(obj:0)
x#6#5                                               1 	(obj:0)
x#7#3                               0.023904409921785 	(obj:0)
x#7#6                               0.976095590078215 	(obj:0)
x#8#1                                               1 	(obj:0)
x#9#2                                               1 	(obj:0)
x#10#6                                              1 	(obj:0)
x#11#2                              0.258948166426772 	(obj:0)
x#11#3                              0.741051833573227 	(obj:0)
x#12#4                                              1 	(obj:0)
x#13#4                                              1 	(obj:0)
x#14#7                                              1 	(obj:0)
x#15#5                                              1 	(obj:0)
x#16#2                                              1 	(obj:0)
x#17#1                              0.530263594806478 	(obj:0)
x#17#4                              0.469736405193522 	(obj:0)
x#18#1                              0.081806680660313 	(obj:0)
x#18#7                              0.918193319339687 	(obj:0)
x#19#5                                              1 	(obj:0)
x#20#3                                              1 	(obj:0)
z                                    82.3983571428571 	(obj:1)
